(set-info :original "../out2/assert_harness.c/assert_harness3ab4e.bc.txt")
(set-info :authors "SeaHorn v.10.0.0-rc0")
(declare-rel verifier.error (Bool Bool Bool ))
(declare-rel assert_harness@_tail ())
(declare-rel assert_harness@.split ())
(declare-rel assert_harness (Bool Bool Bool ))
(declare-rel main@_tail ())
(declare-rel main@.split ())
(declare-var assert_harness@_tail_0 Bool )
(declare-var assert_harness@.split_0 Bool )
(declare-var main@_tail_0 Bool )
(declare-var main@.split_0 Bool )
(rule (verifier.error false false false))
(rule (verifier.error false true true))
(rule (verifier.error true false true))
(rule (verifier.error true true true))
(rule (assert_harness true true true))
(rule (assert_harness false true true))
(rule (assert_harness false false false))
(rule assert_harness@_tail)
(rule (=> (and assert_harness@_tail
         true
         (=> assert_harness@.split_0
             (and assert_harness@.split_0 assert_harness@_tail_0))
         assert_harness@.split_0)
    assert_harness@.split))
(rule (=> assert_harness@.split (assert_harness true false false)))
(rule main@_tail)
(rule (=> (and main@_tail
         true
         (assert_harness true false false)
         (=> main@.split_0 (and main@.split_0 main@_tail_0))
         main@.split_0)
    main@.split))
(query main@.split)

